TIME: 12:00-14:00
EDGE_WEIGHT_SECTION
0.28985507 0.25362319 0.43478261 0.47101449 0.65217391 0.50724638
0.18115942 0.18115942 0.18115942 0.36231884 0.18115942
0.25362319 0.25362319 0.47101449 0.07246377
0.10869565 0.28985507 0.18115942
0.2173913  0.2173913 
0.43478261

DISPLAY_DATA_SECTION
   1 51.50036805 45.95278283698718
   2 51.5431122  46.02158101858003
   3 51.5319399  45.97551171684958
   4 51.568369   45.977968
   5 51.570415249999996 46.00630434999999
   6 51.60037869999999  45.999039852824744
   7 51.5376812  45.983260850985005
EOF